minizinc/sudoku_problems2/sudoku_p4.dzn
%
% sudoku_p4.dzn
% See http://www.hakank.org/minizinc/sudoku_gcc.mzn
% 
% This problem is problem 4 from
% Gecode's sudoku.cpp
% http://www.gecode.org/gecode-doc-latest/sudoku_8cpp-source.html
% 
x = array2d(1..n, 1..n, [   
% 4
% This one requires search
  _,  4,  3,  _,  8,  _,  2,  5,  _,
  6,  _,  _,  _,  _,  _,  _,  _,  _,
  _,  _,  _,  _,  _,  1,  _,  9,  4,
  9,  _,  _,  _,  _,  4,  _,  7,  _,
  _,  _,  _,  6,  _,  8,  _,  _,  _,
  _,  1,  _,  2,  _,  _,  _,  _,  3,
  8,  2,  _,  5,  _,  _,  _,  _,  _,
  _,  _,  _,  _,  _,  _,  _,  _,  5,
  _,  3,  4,  _,  9,  _,  7,  1,  _
]);

n = 9;


